p wcnf 131 66 67 
1 120 9 0 
1 21 -49 0 
1 -41 -15 0 
1 8 7 0 
1 -2 -116 0 
1 -51 100 0 
1 -17 -9 0 
1 58 20 0 
1 -127 19 0 
1 63 -3 0 
1 21 86 0 
1 -59 -67 0 
1 -86 128 0 
1 6 -19 0 
1 -30 -90 0 
1 126 -68 0 
1 23 -91 0 
1 -39 -102 0 
1 45 -102 0 
1 114 48 0 
1 -94 88 0 
1 -84 -67 0 
1 -84 -95 0 
1 60 106 0 
1 -31 2 0 
1 66 70 0 
1 61 -99 0 
1 -116 -23 0 
1 -18 7 0 
1 -82 62 0 
1 -123 -90 0 
1 62 12 0 
1 125 -44 0 
1 108 114 0 
1 -30 92 0 
1 25 54 0 
1 130 7 0 
1 -110 62 0 
1 118 116 0 
1 131 75 0 
1 -88 -95 0 
1 -52 120 0 
1 1 -52 0 
1 25 130 0 
1 131 -24 0 
1 82 10 0 
1 -73 -131 0 
1 -28 -60 0 
1 100 28 0 
1 -128 -119 0 
1 106 66 0 
1 -91 -32 0 
1 -21 -90 0 
1 40 -25 0 
1 127 14 0 
1 -68 -95 0 
1 87 -83 0 
1 -31 -85 0 
1 87 -96 0 
1 -85 127 0 
1 48 -13 0 
1 -47 36 0 
1 -93 -19 0 
1 15 -2 0 
1 -48 114 0 
1 -57 13 0 
